TACC:  Starting up job 3014608 
TACC:  Starting parallel tasks... 

     Program PWSCF v.7.3 starts on 10Apr2026 at 13:45:54 

     This program is part of the open-source Quantum ESPRESSO suite
     for quantum simulation of materials; please cite
         "P. Giannozzi et al., J. Phys.:Condens. Matter 21 395502 (2009);
         "P. Giannozzi et al., J. Phys.:Condens. Matter 29 465901 (2017);
         "P. Giannozzi et al., J. Chem. Phys. 152 154105 (2020);
          URL http://www.quantum-espresso.org", 
     in publications or presentations arising from this work. More details at
     http://www.quantum-espresso.org/quote

     Parallel version (MPI & OpenMP), running on       8 processor cores
     Number of MPI processes:                 8
     Threads/MPI process:                     1

     MPI processes distributed on     1 nodes
     184567 MiB available memory on the printing compute node when the environment starts
 
     Waiting for input...
     Reading input from standard input
Warning: card &CELL ignored
Warning: card  CELL_DYNAMICS = 'BFGS' ignored
Warning: card  PRESS = 0.0, ignored
Warning: card  CELL_DOFREE = '2DXY' ignored
Warning: card / ignored

     Current dimensions of program PWSCF are:
     Max number of different atomic species (ntypx) = 10
     Max number of k-points (npk) =  40000
     Max angular momentum in pseudopotentials (lmaxx) =  4
     Message from routine setup:
     using ibrav=0 with symmetry is DISCOURAGED, use correct ibrav instead
 
     R & G space division:  proc/nbgrp/npool/nimage =       8
     Subspace diagonalization in iterative solution of the eigenvalue problem:
     a serial algorithm will be used

 
     Parallelization info
     --------------------
     sticks:   dense  smooth     PW     G-vecs:    dense   smooth      PW
     Min          54      54     16                 6914     6914    1201
     Max          55      55     18                 6943     6943    1212
     Sum         433     433    139                55439    55439    9641
 
     Using Slab Decomposition
 


     bravais-lattice index     =            0
     lattice parameter (alat)  =       6.2739  a.u.
     unit-cell volume          =    1620.1960 (a.u.)^3
     number of atoms/cell      =            3
     number of atomic types    =            2
     number of electrons       =        46.00
     number of Kohn-Sham states=           46
     kinetic-energy cutoff     =      40.0000  Ry
     charge density cutoff     =     160.0000  Ry
     scf convergence threshold =      1.0E-08
     mixing beta               =       0.3000
     number of iterations used =            8  plain     mixing
     Exchange-correlation= PBE
                           (   1   4   3   4   0   0   0)
     Non magnetic calculation with spin-orbit


     celldm(1)=   6.273891  celldm(2)=   0.000000  celldm(3)=   0.000000
     celldm(4)=   0.000000  celldm(5)=   0.000000  celldm(6)=   0.000000

     crystal axes: (cart. coord. in units of alat)
               a(1) = (   1.000000   0.000000   0.000000 )  
               a(2) = (   0.500000   0.866025   0.000000 )  
               a(3) = (   0.000000   0.000000   7.575758 )  

     reciprocal axes: (cart. coord. in units 2 pi/alat)
               b(1) = (  1.000000 -0.577350  0.000000 )  
               b(2) = (  0.000000  1.154701  0.000000 )  
               b(3) = (  0.000000  0.000000  0.132000 )  


     PseudoPot. # 1 for W  read from file:
     ./pseudo/W.upf
     MD5 check sum: 75b1d432d85d028982bb81b068264ebf
     Pseudo is Norm-conserving + core correction, Zval = 14.0
     Generated using ONCVPSP code by D. R. Hamann
     Using radial grid of 1396 points, 14 beta functions with: 
                l(1) =   0
                l(2) =   0
                l(3) =   1
                l(4) =   1
                l(5) =   1
                l(6) =   1
                l(7) =   2
                l(8) =   2
                l(9) =   2
               l(10) =   2
               l(11) =   3
               l(12) =   3
               l(13) =   3
               l(14) =   3

     PseudoPot. # 2 for Se read from file:
     ./pseudo/Se.upf
     MD5 check sum: cb2cefba1335ec1a0ef320de5a6fd81a
     Pseudo is Norm-conserving + core correction, Zval = 16.0
     Generated using ONCVPSP code by D. R. Hamann
     Using radial grid of 1214 points, 10 beta functions with: 
                l(1) =   0
                l(2) =   0
                l(3) =   1
                l(4) =   1
                l(5) =   1
                l(6) =   1
                l(7) =   2
                l(8) =   2
                l(9) =   2
               l(10) =   2

     atomic species   valence    mass     pseudopotential
     W                14.00   183.84000     W ( 1.00)
     Se               16.00    78.96000     Se( 1.00)

     12 Sym. Ops. (no inversion) found



   Cartesian axes

     site n.     atom                  positions (alat units)
         1        W      tau(   1) = (   0.0000000   0.0000000   3.7878788  )
         2        Se     tau(   2) = (   1.0000000   0.5773503   4.2991098  )
         3        Se     tau(   3) = (   1.0000000   0.5773503   3.2766478  )

     number of k points=    27
                       cart. coord. in units 2pi/alat
        k(    1) = (   0.0000000   0.0000000   0.0000000), wk =   0.0044444
        k(    2) = (   0.0000000   0.0769800   0.0000000), wk =   0.0266667
        k(    3) = (   0.0000000   0.1539601   0.0000000), wk =   0.0266667
        k(    4) = (   0.0000000   0.2309401   0.0000000), wk =   0.0266667
        k(    5) = (   0.0000000   0.3079201   0.0000000), wk =   0.0266667
        k(    6) = (   0.0000000   0.3849002   0.0000000), wk =   0.0266667
        k(    7) = (   0.0000000   0.4618802   0.0000000), wk =   0.0266667
        k(    8) = (   0.0000000   0.5388603   0.0000000), wk =   0.0266667
        k(    9) = (   0.0666667   0.1154701   0.0000000), wk =   0.0266667
        k(   10) = (   0.0666667   0.1924501   0.0000000), wk =   0.0533333
        k(   11) = (   0.0666667   0.2694301   0.0000000), wk =   0.0533333
        k(   12) = (   0.0666667   0.3464102   0.0000000), wk =   0.0533333
        k(   13) = (   0.0666667   0.4233902   0.0000000), wk =   0.0533333
        k(   14) = (   0.0666667   0.5003702   0.0000000), wk =   0.0533333
        k(   15) = (   0.0666667  -0.5773503   0.0000000), wk =   0.0266667
        k(   16) = (   0.1333333   0.2309401   0.0000000), wk =   0.0266667
        k(   17) = (   0.1333333   0.3079201   0.0000000), wk =   0.0533333
        k(   18) = (   0.1333333   0.3849002   0.0000000), wk =   0.0533333
        k(   19) = (   0.1333333   0.4618802   0.0000000), wk =   0.0533333
        k(   20) = (   0.1333333  -0.6158403   0.0000000), wk =   0.0533333
        k(   21) = (   0.2000000   0.3464102   0.0000000), wk =   0.0266667
        k(   22) = (   0.2000000   0.4233902   0.0000000), wk =   0.0533333
        k(   23) = (   0.2000000  -0.6543303   0.0000000), wk =   0.0533333
        k(   24) = (   0.2000000  -0.5773503   0.0000000), wk =   0.0266667
        k(   25) = (   0.2666667  -0.6928203   0.0000000), wk =   0.0266667
        k(   26) = (   0.2666667  -0.6158403   0.0000000), wk =   0.0533333
        k(   27) = (   0.3333333  -0.5773503   0.0000000), wk =   0.0088889

     Dense  grid:    55439 G-vectors     FFT dimensions: (  25,  25, 192)

     Estimated max dynamical RAM per process >      67.55 MB

     Estimated total dynamical RAM >     540.43 MB

     Initial potential from superposition of free atoms

     starting charge      45.9993, renormalised to      46.0000

     negative rho (up, down):  8.619E-02 0.000E+00
     Starting wfcs are   56 randomized atomic wfcs

     total cpu time spent up to now is        1.7 secs

     Self-consistent Calculation

     iteration #  1     ecut=    40.00 Ry     beta= 0.30
     Davidson diagonalization with overlap
     ethr =  1.00E-02,  avg # of iterations =  2.0

     negative rho (up, down):  5.786E-02 0.000E+00

     total cpu time spent up to now is        5.5 secs

     total energy              =    -628.45488168 Ry
     estimated scf accuracy    <       1.35225146 Ry

     iteration #  2     ecut=    40.00 Ry     beta= 0.30
     Davidson diagonalization with overlap
     ethr =  2.94E-03,  avg # of iterations =  1.0

     negative rho (up, down):  2.954E-03 0.000E+00

     total cpu time spent up to now is        8.4 secs

     total energy              =    -628.04416426 Ry
     estimated scf accuracy    <       0.61196187 Ry

     iteration #  3     ecut=    40.00 Ry     beta= 0.30
     Davidson diagonalization with overlap
     ethr =  1.33E-03,  avg # of iterations =  2.0

     negative rho (up, down):  3.474E-03 0.000E+00

     total cpu time spent up to now is       12.2 secs

     total energy              =    -628.14143521 Ry
     estimated scf accuracy    <       0.03619039 Ry

     iteration #  4     ecut=    40.00 Ry     beta= 0.30
     Davidson diagonalization with overlap
     ethr =  7.87E-05,  avg # of iterations =  4.2

     negative rho (up, down):  4.445E-03 0.000E+00

     total cpu time spent up to now is       15.8 secs

     total energy              =    -628.15561620 Ry
     estimated scf accuracy    <       0.05034013 Ry

     iteration #  5     ecut=    40.00 Ry     beta= 0.30
     Davidson diagonalization with overlap
     ethr =  7.87E-05,  avg # of iterations =  4.3

     negative rho (up, down):  2.789E-03 0.000E+00

     total cpu time spent up to now is       19.6 secs

     total energy              =    -628.04814191 Ry
     estimated scf accuracy    <       0.15292194 Ry

     iteration #  6     ecut=    40.00 Ry     beta= 0.30
     Davidson diagonalization with overlap
     ethr =  7.87E-05,  avg # of iterations =  7.3

     negative rho (up, down):  2.087E-06 0.000E+00

     total cpu time spent up to now is       25.7 secs

     total energy              =    -628.10745928 Ry
     estimated scf accuracy    <       1.11174938 Ry

     iteration #  7     ecut=    40.00 Ry     beta= 0.30
     Davidson diagonalization with overlap
     ethr =  7.87E-05,  avg # of iterations =  6.1

     negative rho (up, down):  1.649E-05 0.000E+00

     total cpu time spent up to now is       30.4 secs

     total energy              =    -628.13275796 Ry
     estimated scf accuracy    <       0.18689782 Ry

     iteration #  8     ecut=    40.00 Ry     beta= 0.30
     Davidson diagonalization with overlap
     ethr =  7.87E-05,  avg # of iterations =  4.1

     negative rho (up, down):  3.921E-07 0.000E+00

     total cpu time spent up to now is       34.1 secs

     total energy              =    -628.12254604 Ry
     estimated scf accuracy    <       0.07045380 Ry

     iteration #  9     ecut=    40.00 Ry     beta= 0.30
     Davidson diagonalization with overlap
     ethr =  7.87E-05,  avg # of iterations =  5.1

     total cpu time spent up to now is       38.2 secs

     total energy              =    -628.13015581 Ry
     estimated scf accuracy    <       0.00137878 Ry

     iteration # 10     ecut=    40.00 Ry     beta= 0.30
     Davidson diagonalization with overlap
     ethr =  3.00E-06,  avg # of iterations =  5.3

     total cpu time spent up to now is       42.8 secs

     total energy              =    -628.13092594 Ry
     estimated scf accuracy    <       0.00173377 Ry

     iteration # 11     ecut=    40.00 Ry     beta= 0.30
     Davidson diagonalization with overlap
     ethr =  3.00E-06,  avg # of iterations =  2.3

     total cpu time spent up to now is       46.2 secs

     total energy              =    -628.13100137 Ry
     estimated scf accuracy    <       0.00031052 Ry

     iteration # 12     ecut=    40.00 Ry     beta= 0.30
     Davidson diagonalization with overlap
     ethr =  6.75E-07,  avg # of iterations =  4.9

     total cpu time spent up to now is       50.3 secs

     total energy              =    -628.13103855 Ry
     estimated scf accuracy    <       0.00004253 Ry

     iteration # 13     ecut=    40.00 Ry     beta= 0.30
     Davidson diagonalization with overlap
     ethr =  9.25E-08,  avg # of iterations =  4.5

     total cpu time spent up to now is       54.2 secs

     total energy              =    -628.13105093 Ry
     estimated scf accuracy    <       0.00001376 Ry

     iteration # 14     ecut=    40.00 Ry     beta= 0.30
     Davidson diagonalization with overlap
     ethr =  2.99E-08,  avg # of iterations =  3.9

     total cpu time spent up to now is       57.6 secs

     total energy              =    -628.13104738 Ry
     estimated scf accuracy    <       0.00002422 Ry

     iteration # 15     ecut=    40.00 Ry     beta= 0.30
     Davidson diagonalization with overlap
     ethr =  2.99E-08,  avg # of iterations =  2.3

     total cpu time spent up to now is       60.9 secs

     total energy              =    -628.13104844 Ry
     estimated scf accuracy    <       0.00001029 Ry

     iteration # 16     ecut=    40.00 Ry     beta= 0.30
     Davidson diagonalization with overlap
     ethr =  2.24E-08,  avg # of iterations =  1.0

     total cpu time spent up to now is       63.8 secs

     total energy              =    -628.13104208 Ry
     estimated scf accuracy    <       0.00001046 Ry

     iteration # 17     ecut=    40.00 Ry     beta= 0.30
     Davidson diagonalization with overlap
     ethr =  2.24E-08,  avg # of iterations =  5.5

     total cpu time spent up to now is       68.4 secs

     total energy              =    -628.13104448 Ry
     estimated scf accuracy    <       0.00002927 Ry

     iteration # 18     ecut=    40.00 Ry     beta= 0.30
     Davidson diagonalization with overlap
     ethr =  2.24E-08,  avg # of iterations =  4.2

     total cpu time spent up to now is       72.2 secs

     total energy              =    -628.13104681 Ry
     estimated scf accuracy    <       0.00000141 Ry

     iteration # 19     ecut=    40.00 Ry     beta= 0.30
     Davidson diagonalization with overlap
     ethr =  3.07E-09,  avg # of iterations =  5.0

     total cpu time spent up to now is       76.7 secs

     total energy              =    -628.13104730 Ry
     estimated scf accuracy    <       0.00000046 Ry

     iteration # 20     ecut=    40.00 Ry     beta= 0.30
     Davidson diagonalization with overlap
     ethr =  1.01E-09,  avg # of iterations =  2.3

     total cpu time spent up to now is       80.0 secs

     total energy              =    -628.13104726 Ry
     estimated scf accuracy    <       0.00000008 Ry

     iteration # 21     ecut=    40.00 Ry     beta= 0.30
     Davidson diagonalization with overlap
     ethr =  1.83E-10,  avg # of iterations =  7.6

     total cpu time spent up to now is       85.5 secs

     total energy              =    -628.13104734 Ry
     estimated scf accuracy    <       0.00000100 Ry

     iteration # 22     ecut=    40.00 Ry     beta= 0.30
     Davidson diagonalization with overlap
     ethr =  1.83E-10,  avg # of iterations =  4.7

     total cpu time spent up to now is       89.5 secs

     total energy              =    -628.13104734 Ry
     estimated scf accuracy    <       0.00000028 Ry

     iteration # 23     ecut=    40.00 Ry     beta= 0.30
     Davidson diagonalization with overlap
     ethr =  1.83E-10,  avg # of iterations =  3.4

     total cpu time spent up to now is       93.0 secs

     total energy              =    -628.13104733 Ry
     estimated scf accuracy    <       0.00000011 Ry

     iteration # 24     ecut=    40.00 Ry     beta= 0.30
     Davidson diagonalization with overlap
     ethr =  1.83E-10,  avg # of iterations =  3.0

     total cpu time spent up to now is       96.5 secs

     total energy              =    -628.13104733 Ry
     estimated scf accuracy    <       0.00000004 Ry

     iteration # 25     ecut=    40.00 Ry     beta= 0.30
     Davidson diagonalization with overlap
     ethr =  8.41E-11,  avg # of iterations =  5.0

     total cpu time spent up to now is      100.5 secs

     End of self-consistent calculation

          k = 0.0000 0.0000 0.0000 (  6947 PWs)   bands (ev):

   -74.7290 -74.7290 -49.6595 -49.6595 -49.4982 -49.4982 -49.1459 -49.1459
   -49.0335 -49.0335 -48.8246 -48.8246 -48.7521 -48.7521 -48.5574 -48.5574
   -48.2330 -48.2330 -48.2141 -48.2141 -48.0046 -48.0046 -46.1031 -46.1031
   -36.3142 -36.3142 -36.2075 -36.2075 -15.7036 -15.7036 -14.5958 -14.5958
    -6.8246  -6.8246  -3.1439  -3.1439  -3.1223  -3.1223  -2.7890  -2.7890
    -2.1807  -2.1807  -1.7599  -1.7599  -0.9913  -0.9913

          k = 0.0000 0.0770 0.0000 (  6939 PWs)   bands (ev):

   -74.7283 -74.7283 -49.4324 -49.4324 -49.3696 -49.3696 -49.2407 -49.2407
   -49.1565 -49.1565 -48.6086 -48.6086 -48.5788 -48.5788 -48.3835 -48.3835
   -48.3746 -48.3746 -48.3362 -48.3362 -48.1740 -48.1740 -46.1040 -46.1040
   -36.3147 -36.3147 -36.2138 -36.2138 -15.6429 -15.6429 -14.5650 -14.5650
    -6.7410  -6.7410  -3.3043  -3.3043  -3.1670  -3.1670  -2.8743  -2.8743
    -2.2058  -2.2058  -1.8251  -1.8251  -1.0212  -1.0212

          k = 0.0000 0.1540 0.0000 (  6939 PWs)   bands (ev):

   -74.7271 -74.7271 -49.4305 -49.4305 -49.3290 -49.3290 -49.2525 -49.2525
   -49.1573 -49.1573 -48.6107 -48.6107 -48.4627 -48.4627 -48.4290 -48.4290
   -48.3770 -48.3770 -48.3267 -48.3267 -48.2301 -48.2301 -46.1076 -46.1076
   -36.3177 -36.3177 -36.2331 -36.2331 -15.4660 -15.4660 -14.4760 -14.4760
    -6.5005  -6.5005  -3.7912  -3.7912  -3.4577  -3.4577  -2.8067  -2.8067
    -2.3916  -2.3916  -1.9860  -1.9860  -1.1387  -1.1387

          k = 0.0000 0.2309 0.0000 (  6929 PWs)   bands (ev):

   -74.7253 -74.7253 -49.3776 -49.3776 -49.2883 -49.2883 -49.2553 -49.2553
   -49.1521 -49.1521 -48.5606 -48.5606 -48.4762 -48.4762 -48.4257 -48.4257
   -48.3544 -48.3544 -48.2993 -48.2993 -48.2108 -48.2108 -46.1133 -46.1133
   -36.3258 -36.3258 -36.2575 -36.2575 -15.1903 -15.1903 -14.3377 -14.3377
    -6.1446  -6.1446  -4.4609  -4.4609  -3.9119  -3.9119  -2.7442  -2.7442
    -2.5947  -2.5947  -2.2164  -2.2164  -1.3827  -1.3827

          k = 0.0000 0.3079 0.0000 (  6927 PWs)   bands (ev):

   -74.7240 -74.7240 -49.3905 -49.3905 -49.3116 -49.3116 -49.2770 -49.2770
   -49.1943 -49.1943 -48.5867 -48.5867 -48.4660 -48.4660 -48.4097 -48.4097
   -48.3700 -48.3700 -48.3530 -48.3530 -48.2441 -48.2441 -46.1203 -46.1203
   -36.3462 -36.3462 -36.2754 -36.2754 -14.8462 -14.8462 -14.1669 -14.1669
    -5.8193  -5.8193  -5.0904  -5.0904  -4.4566  -4.4566  -3.0723  -3.0723
    -2.6415  -2.6415  -2.2211  -2.2211  -1.6704  -1.6704

          k = 0.0000 0.3849 0.0000 (  6933 PWs)   bands (ev):

   -74.7232 -74.7232 -49.4556 -49.4556 -49.4142 -49.4142 -49.3104 -49.3104
   -49.2388 -49.2388 -48.6284 -48.6284 -48.5498 -48.5498 -48.4467 -48.4467
   -48.3799 -48.3799 -48.3437 -48.3437 -48.2981 -48.2981 -46.1278 -46.1278
   -36.3748 -36.3748 -36.2842 -36.2842 -14.4810 -14.4810 -13.9891 -13.9891
    -6.0843  -6.0843  -5.1347  -5.1347  -5.0041  -5.0041  -3.3630  -3.3630
    -2.8192  -2.8192  -2.0847  -2.0847  -1.7836  -1.7836

          k = 0.0000 0.4619 0.0000 (  6941 PWs)   bands (ev):

   -74.7227 -74.7227 -49.5375 -49.5375 -49.4502 -49.4502 -49.3811 -49.3811
   -49.2072 -49.2072 -48.7139 -48.7139 -48.6022 -48.6022 -48.5011 -48.5011
   -48.4685 -48.4685 -48.3966 -48.3966 -48.2701 -48.2701 -46.1334 -46.1334
   -36.4006 -36.4006 -36.2874 -36.2874 -14.1619 -14.1619 -13.8385 -13.8385
    -6.5817  -6.5817  -5.4651  -5.4651  -4.9384  -4.9384  -3.5701  -3.5701
    -2.9340  -2.9340  -1.9814  -1.9814  -1.6861  -1.6861

          k = 0.0000 0.5389 0.0000 (  6945 PWs)   bands (ev):

   -74.7224 -74.7224 -49.5574 -49.5574 -49.4700 -49.4700 -49.4168 -49.4168
   -49.2240 -49.2240 -48.7251 -48.7251 -48.6760 -48.6760 -48.5371 -48.5371
   -48.5085 -48.5085 -48.3798 -48.3798 -48.2606 -48.2606 -46.1370 -46.1370
   -36.4153 -36.4153 -36.2889 -36.2889 -13.9704 -13.9704 -13.7513 -13.7513
    -6.8813  -6.8813  -5.7156  -5.7156  -4.8646  -4.8646  -3.6763  -3.6763
    -2.9855  -2.9855  -1.8711  -1.8711  -1.5811  -1.5811

          k = 0.0667 0.1155 0.0000 (  6951 PWs)   bands (ev):

   -74.7281 -74.7281 -49.4182 -49.4164 -49.3593 -49.3580 -49.3045 -49.3034
   -49.2454 -49.2428 -48.6111 -48.6076 -48.5207 -48.5144 -48.4821 -48.4774
   -48.4271 -48.4260 -48.3791 -48.3750 -48.2609 -48.2606 -46.1073 -46.1068
   -36.3174 -36.3170 -36.2283 -36.2273 -15.5252 -15.5229 -14.5053 -14.5050
    -6.5795  -6.5779  -3.6417  -3.6214  -3.3680  -3.3245  -2.8961  -2.8030
    -2.4313  -2.3083  -1.9846  -1.8049  -1.0954  -1.0931

          k = 0.0667 0.1925 0.0000 (  6943 PWs)   bands (ev):

   -74.7264 -74.7264 -49.4326 -49.4324 -49.3611 -49.3610 -49.2890 -49.2873
   -49.1888 -49.1866 -48.6106 -48.6045 -48.5072 -48.5006 -48.4761 -48.4696
   -48.3833 -48.3794 -48.3071 -48.3062 -48.2411 -48.2410 -46.1121 -46.1113
   -36.3224 -36.3216 -36.2514 -36.2490 -15.3009 -15.2941 -14.3918 -14.3909
    -6.2781  -6.2730  -4.2164  -4.1871  -3.6992  -3.6891  -2.8365  -2.7635
    -2.7633  -2.6010  -2.0938  -1.8754  -1.2880  -1.2568

          k = 0.0667 0.2694 0.0000 (  6920 PWs)   bands (ev):

   -74.7242 -74.7242 -49.3821 -49.3816 -49.2889 -49.2883 -49.2316 -49.2303
   -49.1709 -49.1704 -48.5630 -48.5560 -48.4297 -48.4293 -48.4013 -48.4012
   -48.3543 -48.3540 -48.2651 -48.2605 -48.2003 -48.1995 -46.1183 -46.1160
   -36.3352 -36.3351 -36.2723 -36.2687 -14.9933 -14.9801 -14.2369 -14.2352
    -5.9061  -5.8940  -4.8629  -4.8484  -4.1756  -4.1569  -3.2233  -3.1903
    -2.6465  -2.4416  -2.2661  -2.0783  -1.5846  -1.4575

          k = 0.0667 0.3464 0.0000 (  6929 PWs)   bands (ev):

   -74.7235 -74.7235 -49.4708 -49.4694 -49.3609 -49.3600 -49.2805 -49.2783
   -49.1937 -49.1930 -48.6271 -48.6222 -48.4917 -48.4884 -48.4346 -48.4323
   -48.3915 -48.3907 -48.3322 -48.3255 -48.2745 -48.2725 -46.1256 -46.1235
   -36.3616 -36.3596 -36.2848 -36.2824 -14.6405 -14.6193 -14.0615 -14.0589
    -5.8198  -5.8065  -5.2097  -5.2090  -4.7449  -4.7164  -3.4871  -3.4865
    -2.6792  -2.5893  -2.2946  -2.2555  -1.7792  -1.5338

          k = 0.0667 0.4234 0.0000 (  6940 PWs)   bands (ev):

   -74.7230 -74.7230 -49.4967 -49.4954 -49.4310 -49.4292 -49.3550 -49.3524
   -49.2347 -49.2323 -48.6774 -48.6693 -48.5760 -48.5724 -48.5125 -48.5118
   -48.4536 -48.4519 -48.4166 -48.4133 -48.3066 -48.3036 -46.1327 -46.1297
   -36.3906 -36.3862 -36.2901 -36.2886 -14.2986 -14.2689 -13.8953 -13.8920
    -6.3074  -6.2961  -5.2740  -5.2490  -5.0050  -4.9916  -3.6575  -3.6440
    -2.8181  -2.8045  -2.4049  -2.2507  -1.7340  -1.4457

          k = 0.0667 0.5004 0.0000 (  6928 PWs)   bands (ev):

   -74.7217 -74.7217 -49.4745 -49.4701 -49.4061 -49.4027 -49.3636 -49.3593
   -49.1782 -49.1757 -48.6628 -48.6596 -48.5762 -48.5748 -48.5070 -48.5044
   -48.4165 -48.4139 -48.3569 -48.3527 -48.2664 -48.2646 -46.1369 -46.1329
   -36.4109 -36.4049 -36.2907 -36.2898 -14.0414 -14.0048 -13.7740 -13.7705
    -6.7205  -6.6934  -5.6351  -5.6127  -4.8783  -4.8550  -3.7450  -3.7257
    -2.9481  -2.9404  -2.3850  -2.1836  -1.6167  -1.2995

          k = 0.0667-0.5774 0.0000 (  6920 PWs)   bands (ev):

   -74.7210 -74.7210 -49.4483 -49.4474 -49.3913 -49.3900 -49.3442 -49.3427
   -49.1616 -49.1600 -48.6517 -48.6516 -48.5193 -48.5158 -48.4858 -48.4854
   -48.4112 -48.4108 -48.3680 -48.3621 -48.2147 -48.2145 -46.1382 -46.1347
   -36.4175 -36.4111 -36.2914 -36.2908 -13.9439 -13.9047 -13.7294 -13.7259
    -6.8737  -6.8408  -5.7641  -5.7431  -4.8489  -4.8225  -3.7719  -3.7508
    -2.9977  -2.9864  -2.3556  -2.1397  -1.5508  -1.2211

          k = 0.1333 0.2309 0.0000 (  6941 PWs)   bands (ev):

   -74.7254 -74.7254 -49.4174 -49.4148 -49.4014 -49.4005 -49.2753 -49.2738
   -49.2570 -49.2562 -48.6059 -48.5950 -48.5238 -48.5228 -48.4616 -48.4560
   -48.3987 -48.3906 -48.3389 -48.3310 -48.2757 -48.2743 -46.1183 -46.1150
   -36.3322 -36.3315 -36.2732 -36.2677 -15.0442 -15.0266 -14.2610 -14.2588
    -5.9430  -5.9270  -4.7572  -4.7298  -3.9986  -3.9670  -3.4016  -3.3791
    -2.7511  -2.4933  -2.1286  -1.8747  -1.5198  -1.3819

          k = 0.1333 0.3079 0.0000 (  6929 PWs)   bands (ev):

   -74.7238 -74.7238 -49.4187 -49.4169 -49.3652 -49.3645 -49.2707 -49.2660
   -49.2153 -49.2146 -48.5934 -48.5822 -48.5210 -48.5201 -48.4447 -48.4377
   -48.3958 -48.3946 -48.3476 -48.3405 -48.2479 -48.2457 -46.1247 -46.1205
   -36.3518 -36.3493 -36.2880 -36.2831 -14.7258 -14.6936 -14.0999 -14.0959
    -5.6379  -5.5890  -5.2513  -5.2332  -4.4859  -4.4076  -3.8126  -3.7608
    -2.8683  -2.5504  -2.3029  -2.0820  -1.6682  -1.4048

          k = 0.1333 0.3849 0.0000 (  6920 PWs)   bands (ev):

   -74.7223 -74.7223 -49.4128 -49.4094 -49.3525 -49.3495 -49.2795 -49.2767
   -49.1897 -49.1881 -48.5761 -48.5669 -48.5083 -48.5040 -48.4694 -48.4685
   -48.4224 -48.4203 -48.3061 -48.3032 -48.2444 -48.2390 -46.1313 -46.1257
   -36.3789 -36.3716 -36.2945 -36.2917 -14.3908 -14.3422 -13.9325 -13.9269
    -5.9588  -5.9586  -5.0891  -5.0851  -5.0365  -4.9858  -3.9461  -3.8860
    -3.0543  -2.7723  -2.5437  -2.3869  -1.6469  -1.3350

          k = 0.1333 0.4619 0.0000 (  6911 PWs)   bands (ev):

   -74.7210 -74.7210 -49.4426 -49.4397 -49.3508 -49.3473 -49.2594 -49.2560
   -49.1370 -49.1333 -48.6078 -48.6031 -48.5031 -48.5019 -48.4562 -48.4520
   -48.3806 -48.3772 -48.3227 -48.3169 -48.2112 -48.2096 -46.1369 -46.1300
   -36.4015 -36.3902 -36.2984 -36.2973 -14.1016 -14.0374 -13.7909 -13.7844
    -6.4090  -6.3689  -5.5181  -5.4658  -4.8732  -4.8381  -3.9639  -3.9046
    -3.1703  -2.9470  -2.7486  -2.6634  -1.5332  -1.1981

          k = 0.1333-0.6158 0.0000 (  6903 PWs)   bands (ev):

   -74.7202 -74.7202 -49.4332 -49.4320 -49.3818 -49.3806 -49.2410 -49.2387
   -49.0651 -49.0628 -48.6362 -48.6340 -48.4927 -48.4913 -48.4684 -48.4600
   -48.3430 -48.3351 -48.3279 -48.3237 -48.1365 -48.1356 -46.1395 -46.1318
   -36.4141 -36.4005 -36.2996 -36.2994 -13.9296 -13.8559 -13.7089 -13.7025
    -6.6702  -6.6074  -5.7685  -5.7234  -4.8097  -4.7616  -3.9424  -3.8824
    -3.2067  -3.0571  -2.8228  -2.8220  -1.4053  -1.0519

          k = 0.2000 0.3464 0.0000 (  6940 PWs)   bands (ev):

   -74.7234 -74.7234 -49.4617 -49.4577 -49.4036 -49.4005 -49.3425 -49.3398
   -49.2408 -49.2392 -48.6397 -48.6363 -48.5754 -48.5721 -48.5201 -48.5189
   -48.5004 -48.4982 -48.4323 -48.4264 -48.2799 -48.2797 -46.1323 -46.1256
   -36.3746 -36.3661 -36.2996 -36.2963 -14.4234 -14.3682 -13.9454 -13.9391
    -5.7779  -5.7578  -5.1382  -5.1303  -4.9387  -4.8367  -4.1305  -4.0251
    -3.2519  -2.9740  -2.4484  -2.2810  -1.6225  -1.3040

          k = 0.2000 0.4234 0.0000 (  6914 PWs)   bands (ev):

   -74.7212 -74.7212 -49.4360 -49.4324 -49.3559 -49.3516 -49.2766 -49.2727
   -49.1533 -49.1488 -48.5897 -48.5861 -48.5421 -48.5414 -48.5009 -48.4997
   -48.3829 -48.3761 -48.3356 -48.3334 -48.1652 -48.1644 -46.1371 -46.1283
   -36.3945 -36.3791 -36.3053 -36.3050 -14.1360 -14.0573 -13.7999 -13.7917
    -6.1020  -6.0676  -5.4214  -5.3339  -4.8697  -4.8412  -4.1696  -4.0702
    -3.6154  -3.4054  -2.6861  -2.5836  -1.5153  -1.1732

          k = 0.2000-0.6543 0.0000 (  6903 PWs)   bands (ev):

   -74.7201 -74.7201 -49.4326 -49.4292 -49.3430 -49.3399 -49.2441 -49.2412
   -49.0967 -49.0937 -48.5957 -48.5915 -48.5138 -48.5118 -48.4530 -48.4473
   -48.3698 -48.3602 -48.3114 -48.3083 -48.1642 -48.1631 -46.1408 -46.1307
   -36.4084 -36.3882 -36.3119 -36.3097 -13.9246 -13.8276 -13.6942 -13.6858
    -6.3452  -6.2652  -5.7519  -5.6805  -4.7589  -4.7096  -4.1133  -4.0516
    -3.7810  -3.6655  -2.9134  -2.8702  -1.3424  -0.9745

          k = 0.2000-0.5774 0.0000 (  6886 PWs)   bands (ev):

   -74.7191 -74.7191 -49.3484 -49.3442 -49.2596 -49.2555 -49.2363 -49.2335
   -49.0711 -49.0681 -48.5160 -48.5133 -48.4232 -48.4192 -48.3994 -48.3976
   -48.3315 -48.3257 -48.3175 -48.3101 -48.1276 -48.1264 -46.1418 -46.1313
   -36.4131 -36.3911 -36.3133 -36.3102 -13.8456 -13.7418 -13.6555 -13.6474
    -6.4340  -6.3349  -5.8693  -5.8032  -4.7506  -4.6955  -4.0690  -4.0432
    -3.7863  -3.7402  -3.0107  -2.9985  -1.2403  -0.8547

          k = 0.2667-0.6928 0.0000 (  6894 PWs)   bands (ev):

   -74.7196 -74.7196 -49.4416 -49.4373 -49.3039 -49.2987 -49.1829 -49.1768
   -49.0884 -49.0833 -48.6030 -48.6014 -48.4769 -48.4728 -48.4382 -48.4342
   -48.3032 -48.3000 -48.2959 -48.2880 -48.0792 -48.0765 -46.1416 -46.1299
   -36.4057 -36.3819 -36.3173 -36.3134 -13.9237 -13.8185 -13.6889 -13.6796
    -6.1479  -6.0675  -5.7439  -5.6574  -4.7208  -4.6934  -4.2372  -4.1997
    -4.0013  -3.9600  -2.9011  -2.8666  -1.3236  -0.9497

          k = 0.2667-0.6158 0.0000 (  6871 PWs)   bands (ev):

   -74.7182 -74.7182 -49.4332 -49.4267 -49.2320 -49.2243 -49.1180 -49.1148
   -48.9961 -48.9958 -48.5684 -48.5645 -48.4694 -48.4648 -48.3328 -48.3324
   -48.2388 -48.2365 -48.1611 -48.1558 -48.0349 -48.0324 -46.1431 -46.1301
   -36.4098 -36.3797 -36.3263 -36.3183 -13.8011 -13.6808 -13.6250 -13.6164
    -6.1197  -5.9988  -5.9277  -5.8415  -4.7847  -4.7381  -4.3949  -4.3483
    -4.1226  -3.8973  -3.1036  -3.0723  -1.1219  -0.6995

          k = 0.3333-0.5774 0.0000 (  6852 PWs)   bands (ev):

   -74.7173 -74.7173 -49.4161 -49.4074 -49.2244 -49.2134 -49.0642 -49.0569
   -48.9991 -48.9877 -48.4958 -48.4937 -48.4324 -48.4255 -48.2517 -48.2466
   -48.2131 -48.2128 -48.0245 -48.0223 -47.9726 -47.9702 -46.1439 -46.1309
   -36.4094 -36.3740 -36.3342 -36.3220 -13.7566 -13.6281 -13.5997 -13.5915
    -5.9940  -5.9253  -5.9204  -5.7407  -5.0574  -4.9353  -4.5238  -4.4414
    -4.1103  -3.8487  -3.2252  -3.1459  -1.0019  -0.5302

     highest occupied level (ev):    -0.5302

!    total energy              =    -628.13104734 Ry
     estimated scf accuracy    <          6.1E-10 Ry

     The total energy is the sum of the following terms:
     one-electron contribution =   -4155.93827304 Ry
     hartree contribution      =    2068.09189412 Ry
     xc contribution           =    -127.22798553 Ry
     ewald contribution        =    1586.94331711 Ry

     convergence has been achieved in  25 iterations

     Writing all to output data dir ./2H.save/ :
     XML data file, charge density, pseudopotentials, collected wavefunctions
 
     init_run     :      1.44s CPU      1.53s WALL (       1 calls)
     electrons    :     97.72s CPU     98.86s WALL (       1 calls)

     Called by init_run:
     wfcinit      :      1.33s CPU      1.39s WALL (       1 calls)
     potinit      :      0.01s CPU      0.02s WALL (       1 calls)
     hinit0       :      0.06s CPU      0.08s WALL (       1 calls)

     Called by electrons:
     c_bands      :     86.64s CPU     87.59s WALL (      25 calls)
     sum_band     :     10.72s CPU     10.89s WALL (      25 calls)
     v_of_rho     :      0.17s CPU      0.17s WALL (      26 calls)
     mix_rho      :      0.17s CPU      0.18s WALL (      25 calls)

     Called by c_bands:
     init_us_2    :      0.79s CPU      0.82s WALL (    1377 calls)
     init_us_2:cp :      0.79s CPU      0.82s WALL (    1377 calls)
     cegterg      :     76.10s CPU     76.98s WALL (     675 calls)

     Called by *egterg:
     cdiaghg      :      7.98s CPU      8.04s WALL (    3407 calls)
     h_psi        :     57.84s CPU     58.65s WALL (    3434 calls)
     g_psi        :      0.35s CPU      0.35s WALL (    2732 calls)

     Called by h_psi:
     h_psi:calbec :      3.69s CPU      3.73s WALL (    3434 calls)
     vloc_psi     :     48.38s CPU     49.13s WALL (    3434 calls)
     add_vuspsi   :      5.37s CPU      5.40s WALL (    3434 calls)

     General routines
     calbec       :      3.68s CPU      3.72s WALL (    3434 calls)
     fft          :      0.13s CPU      0.14s WALL (     410 calls)
     ffts         :      0.02s CPU      0.02s WALL (     100 calls)
     fftw         :     48.91s CPU     49.67s WALL (  399060 calls)
 
     Parallel routines
 
     PWSCF        :   1m39.48s CPU   1m41.44s WALL

 
   This run was terminated on:  13:47:36  10Apr2026            

=------------------------------------------------------------------------------=
   JOB DONE.
=------------------------------------------------------------------------------=
TACC:  Shutdown complete. Exiting. 
