
     Program PWSCF v.7.3.1 starts on 25Feb2026 at 13:37:24 

     This program is part of the open-source Quantum ESPRESSO suite
     for quantum simulation of materials; please cite
         "P. Giannozzi et al., J. Phys.:Condens. Matter 21 395502 (2009);
         "P. Giannozzi et al., J. Phys.:Condens. Matter 29 465901 (2017);
         "P. Giannozzi et al., J. Chem. Phys. 152 154105 (2020);
          URL http://www.quantum-espresso.org", 
     in publications or presentations arising from this work. More details at
     http://www.quantum-espresso.org/quote

     Parallel version (MPI), running on     4 processors

     MPI processes distributed on     1 nodes
     6172 MiB available memory on the printing compute node when the environment starts

     Waiting for input...
     Reading input from standard input
Warning: card &IONS ignored
Warning: card  ION_DYNAMICS='BFGS', ignored
Warning: card / ignored
Warning: card &CELL ignored
Warning: card  CELL_DYNAMICS = 'BFGS' ignored
Warning: card  PRESS = 0.0, ignored
Warning: card  CELL_DOFREE = '2DXY' ignored
Warning: card / ignored

     Current dimensions of program PWSCF are:
     Max number of different atomic species (ntypx) = 10
     Max number of k-points (npk) =  40000
     Max angular momentum in pseudopotentials (lmaxx) =  4

     Atomic positions and unit cell read from directory:
     ./2H.save/

     Message from routine setup:
     using ibrav=0 with symmetry is DISCOURAGED, use correct ibrav instead

     R & G space division:  proc/nbgrp/npool/nimage =       4
     Subspace diagonalization in iterative solution of the eigenvalue problem:
     one sub-group per band group will be used
     custom distributed-memory algorithm (size of sub-group:  2*  2 procs)


     Parallelization info
     --------------------
     sticks:   dense  smooth     PW     G-vecs:    dense   smooth      PW
     Min          99      99     30                12587    12587    2162
     Max         100     100     31                12596    12596    2191
     Sum         397     397    121                50363    50363    8685

     Using Slab Decomposition



     bravais-lattice index     =            0
     lattice parameter (alat)  =       6.0093  a.u.
     unit-cell volume          =    1477.4796 (a.u.)^3
     number of atoms/cell      =            3
     number of atomic types    =            2
     number of electrons       =        26.00
     number of Kohn-Sham states=          350
     kinetic-energy cutoff     =      40.0000  Ry
     charge density cutoff     =     160.0000  Ry
     Exchange-correlation= PBE
                           (   1   4   3   4   0   0   0)
     Non magnetic calculation with spin-orbit


     celldm(1)=   6.009329  celldm(2)=   0.000000  celldm(3)=   0.000000
     celldm(4)=   0.000000  celldm(5)=   0.000000  celldm(6)=   0.000000

     crystal axes: (cart. coord. in units of alat)
               a(1) = (   1.000000   0.000000   0.000000 )  
               a(2) = (   0.500000   0.866025   0.000000 )  
               a(3) = (   0.000000   0.000000   7.861635 )  

     reciprocal axes: (cart. coord. in units 2 pi/alat)
               b(1) = (  1.000000 -0.577350  0.000000 )  
               b(2) = (  0.000000  1.154701  0.000000 )  
               b(3) = (  0.000000  0.000000  0.127200 )  


     PseudoPot. # 1 for Mo read from file:
     ./2H.save/Mo.upf
     MD5 check sum: 4e1c3579de4f68baf863f15f5be96aa1
     Pseudo is Norm-conserving + core correction, Zval = 14.0
     Generated using ONCVPSP code by D. R. Hamann
     Using radial grid of 1640 points, 10 beta functions with: 
                l(1) =   0
                l(2) =   0
                l(3) =   1
                l(4) =   1
                l(5) =   1
                l(6) =   1
                l(7) =   2
                l(8) =   2
                l(9) =   2
               l(10) =   2

     PseudoPot. # 2 for S  read from file:
     ./2H.save/S.upf
     MD5 check sum: a7319d53700e7dada26ada44d0048388
     Pseudo is Norm-conserving + core correction, Zval =  6.0
     Generated using ONCVPSP code by D. R. Hamann
     Using radial grid of 1146 points, 10 beta functions with: 
                l(1) =   0
                l(2) =   0
                l(3) =   1
                l(4) =   1
                l(5) =   1
                l(6) =   1
                l(7) =   2
                l(8) =   2
                l(9) =   2
               l(10) =   2

     atomic species   valence    mass     pseudopotential
     Mo               14.00    95.94000     Mo( 1.00)
     S                 6.00    32.06500     S ( 1.00)

     12 Sym. Ops. (no inversion) found



   Cartesian axes

     site n.     atom                  positions (alat units)
         1        Mo     tau(   1) = (   0.0000000   0.0000000   3.9308176  )
         2        S      tau(   2) = (   1.0000000   0.5773503   3.4371069  )
         3        S      tau(   3) = (   1.0000000   0.5773503   4.4245283  )

     number of k points=     5
                       cart. coord. in units 2pi/alat
        k(    1) = (   0.6666667   0.0000000   0.0000000), wk =   0.2000000
        k(    2) = (   0.6666767   0.0000000   0.0000000), wk =   0.2000000
        k(    3) = (   0.6666567   0.0000000   0.0000000), wk =   0.2000000
        k(    4) = (   0.6666667   0.0000100   0.0000000), wk =   0.2000000
        k(    5) = (   0.6666667  -0.0000100   0.0000000), wk =   0.2000000

     Dense  grid:    50363 G-vectors     FFT dimensions: (  25,  25, 192)

     Estimated max dynamical RAM per process >     107.41 MB

     Estimated total dynamical RAM >     429.63 MB

     The potential is recalculated from file :
     ./2H.save/charge-density

     Starting wfcs are   36 randomized atomic wfcs +  314 random wfcs

     Band Structure Calculation
     Davidson diagonalization with overlap

     ethr =  3.85E-11,  avg # of iterations = 39.0

     total cpu time spent up to now is      838.2 secs

     End of band structure calculation

          k = 0.6667 0.0000 0.0000 (  6390 PWs)   bands (ev):

   -62.7094 -62.7094 -38.6355 -38.6124 -36.2042 -36.1565 -36.0851 -36.0700
   -13.9080 -13.8462 -13.8215 -13.8178  -7.3352  -7.3282  -6.5269  -6.4914
    -6.0207  -5.9633  -5.4921  -5.4742  -4.8372  -4.7872  -4.1335  -4.1102
    -2.0438  -1.8977  -0.2656  -0.2625   1.0530   1.0839   1.4960   1.6354
     2.8537   2.9355   5.2297   5.3507   5.6508   5.6541   7.6259   7.6340
     8.4477   8.4781   9.1683   9.1762   9.6537   9.6712   9.6902   9.7101
     9.7570   9.7587  10.0766  10.0906  10.4494  10.4523  10.5314  10.5367
    10.5808  10.5861  10.5869  10.5901  10.8691  10.8710  10.9897  11.0098
    11.0310  11.0331  11.0523  11.0523  11.2069  11.2273  11.2324  11.2417
    11.7174  11.7191  12.0651  12.0696  12.2628  12.2662  12.3063  12.3068
    12.3303  12.3352  12.4844  12.4844  13.4183  13.4190  13.8546  13.8572
    13.8629  13.8755  14.1492  14.1499  14.2449  14.2454  14.3673  14.3693
    15.7371  15.7376  15.7881  15.7996  16.1764  16.1786  16.2139  16.2199
    16.4535  16.4668  16.4708  16.6064  17.0498  17.0778  17.9771  17.9847
    18.5602  18.5622  18.6272  18.6305  19.0362  19.0431  19.0613  19.0651
    20.2421  20.2497  20.5715  20.5789  21.5487  21.5532  21.6994  21.7078
    21.8114  21.8166  22.0840  22.0841  22.7984  22.8010  22.9987  23.0007
    23.1795  23.2064  23.6912  23.6942  23.7053  23.7078  23.7118  23.7352
    24.5056  24.5109  24.7737  24.7876  24.9066  24.9090  25.5256  25.5277
    25.8770  25.8800  25.8866  25.9326  26.8833  26.8862  27.0141  27.0153
    27.0272  27.0426  27.2651  27.2729  27.3147  27.3250  28.6313  28.6338
    28.6744  28.6751  29.2441  29.2474  29.9062  29.9084  29.9100  29.9135
    29.9158  29.9166  30.0366  30.0395  30.1985  30.2004  30.3652  30.3653
    30.3756  30.3761  30.4657  30.4661  30.4715  30.4723  30.6742  30.6774
    30.9819  30.9827  31.0737  31.0755  31.1536  31.1563  31.2888  31.2899
    31.3161  31.3162  31.3162  31.3168  31.6024  31.6276  31.7587  31.7591
    32.0204  32.0233  32.5235  32.5262  32.5986  32.6006  32.8315  32.8454
    32.8599  32.8825  33.5521  33.5540  33.6277  33.6278  33.7169  33.7254
    33.7972  33.7992  33.9721  33.9863  34.3826  34.3826  34.3921  34.4594
    34.4646  34.4715  34.7679  34.7711  35.2664  35.2781  35.2894  35.2982
    35.4719  35.4722  35.4916  35.4933  35.6105  35.6113  35.8979  35.9514
    36.0533  36.0566  36.7861  36.8065  36.8431  36.8441  37.2316  37.2371
    37.4185  37.4190  37.5777  37.5803  37.9418  37.9427  38.2416  38.2456
    38.3322  38.3325  38.6622  38.6688  38.9144  38.9171  39.1635  39.1746
    39.3492  39.3494  39.6048  39.6121  39.8298  39.8591  40.1917  40.1989
    40.6204  40.6225  40.7537  40.7582  40.9034  40.9054  41.1103  41.1104
    41.3732  41.3781  41.5469  41.5504  41.5505  41.5519  41.8422  41.8426
    42.1579  42.1750  42.2067  42.2124  42.6152  42.6188  43.0515  43.0517
    43.4254  43.4527  44.2270  44.2399  44.6706  44.6825  44.6834  44.6869
    44.8012  44.8019  44.8626  44.8646  44.9813  44.9848  45.2802  45.2804
    46.0012  46.0022  46.2330  46.2347  46.3240  46.3242  46.3629  46.3667
    47.3716  47.3717  47.7015  47.7213  47.9138  48.0037  48.0112  48.0140
    48.1608  48.1630  48.4259  48.4508  48.5835  48.5884  48.6715  48.6717
    48.7608  48.7639  48.9587  48.9601  49.0081  49.0083

          k = 0.6667 0.0000 0.0000 (  6390 PWs)   bands (ev):

   -62.7094 -62.7094 -38.6355 -38.6124 -36.2042 -36.1565 -36.0851 -36.0700
   -13.9080 -13.8462 -13.8215 -13.8178  -7.3352  -7.3282  -6.5269  -6.4914
    -6.0207  -5.9633  -5.4921  -5.4742  -4.8372  -4.7872  -4.1335  -4.1102
    -2.0438  -1.8977  -0.2656  -0.2625   1.0530   1.0839   1.4960   1.6354
     2.8537   2.9355   5.2297   5.3507   5.6508   5.6541   7.6259   7.6340
     8.4477   8.4781   9.1683   9.1762   9.6537   9.6712   9.6902   9.7101
     9.7570   9.7587  10.0766  10.0906  10.4494  10.4523  10.5314  10.5367
    10.5808  10.5861  10.5869  10.5901  10.8691  10.8710  10.9897  11.0098
    11.0310  11.0331  11.0523  11.0523  11.2069  11.2273  11.2324  11.2417
    11.7174  11.7191  12.0651  12.0696  12.2628  12.2662  12.3063  12.3068
    12.3303  12.3352  12.4844  12.4844  13.4183  13.4190  13.8546  13.8572
    13.8629  13.8755  14.1492  14.1499  14.2449  14.2454  14.3673  14.3693
    15.7371  15.7376  15.7881  15.7996  16.1764  16.1786  16.2139  16.2199
    16.4535  16.4668  16.4708  16.6064  17.0498  17.0778  17.9771  17.9847
    18.5602  18.5622  18.6272  18.6305  19.0362  19.0431  19.0613  19.0651
    20.2421  20.2497  20.5715  20.5789  21.5487  21.5532  21.6994  21.7078
    21.8114  21.8166  22.0840  22.0841  22.7984  22.8010  22.9987  23.0007
    23.1795  23.2064  23.6912  23.6942  23.7053  23.7078  23.7118  23.7352
    24.5056  24.5109  24.7737  24.7876  24.9066  24.9090  25.5256  25.5277
    25.8770  25.8800  25.8866  25.9326  26.8833  26.8862  27.0141  27.0153
    27.0272  27.0426  27.2651  27.2729  27.3147  27.3250  28.6313  28.6338
    28.6744  28.6751  29.2441  29.2474  29.9062  29.9084  29.9100  29.9135
    29.9158  29.9166  30.0366  30.0395  30.1985  30.2004  30.3652  30.3653
    30.3756  30.3761  30.4657  30.4661  30.4715  30.4723  30.6742  30.6774
    30.9819  30.9827  31.0737  31.0755  31.1536  31.1563  31.2888  31.2899
    31.3161  31.3162  31.3162  31.3168  31.6024  31.6276  31.7587  31.7591
    32.0204  32.0233  32.5235  32.5262  32.5986  32.6006  32.8315  32.8454
    32.8599  32.8825  33.5521  33.5540  33.6277  33.6278  33.7169  33.7254
    33.7972  33.7992  33.9721  33.9863  34.3826  34.3826  34.3921  34.4594
    34.4646  34.4715  34.7679  34.7711  35.2664  35.2781  35.2894  35.2982
    35.4719  35.4722  35.4916  35.4933  35.6105  35.6113  35.8979  35.9514
    36.0533  36.0566  36.7861  36.8065  36.8431  36.8441  37.2316  37.2371
    37.4185  37.4190  37.5777  37.5803  37.9418  37.9427  38.2416  38.2456
    38.3322  38.3325  38.6622  38.6688  38.9144  38.9171  39.1635  39.1746
    39.3492  39.3494  39.6048  39.6121  39.8298  39.8591  40.1917  40.1989
    40.6204  40.6225  40.7537  40.7582  40.9034  40.9054  41.1103  41.1104
    41.3732  41.3781  41.5469  41.5504  41.5505  41.5519  41.8422  41.8426
    42.1579  42.1750  42.2067  42.2124  42.6152  42.6188  43.0515  43.0517
    43.4254  43.4527  44.2270  44.2399  44.6706  44.6825  44.6834  44.6869
    44.8012  44.8019  44.8626  44.8646  44.9813  44.9848  45.2802  45.2804
    46.0012  46.0022  46.2330  46.2347  46.3240  46.3242  46.3629  46.3667
    47.3716  47.3717  47.7015  47.7213  47.9138  48.0037  48.0112  48.0140
    48.1608  48.1630  48.4259  48.4508  48.5835  48.5884  48.6715  48.6717
    48.7608  48.7639  48.9587  48.9601  49.0081  49.0083

          k = 0.6667 0.0000 0.0000 (  6390 PWs)   bands (ev):

   -62.7094 -62.7094 -38.6355 -38.6124 -36.2042 -36.1565 -36.0851 -36.0700
   -13.9080 -13.8462 -13.8215 -13.8178  -7.3352  -7.3282  -6.5269  -6.4914
    -6.0207  -5.9633  -5.4921  -5.4742  -4.8372  -4.7872  -4.1335  -4.1102
    -2.0438  -1.8977  -0.2656  -0.2625   1.0530   1.0839   1.4960   1.6354
     2.8537   2.9355   5.2297   5.3507   5.6508   5.6541   7.6259   7.6340
     8.4477   8.4781   9.1683   9.1762   9.6537   9.6712   9.6902   9.7101
     9.7570   9.7587  10.0766  10.0906  10.4494  10.4523  10.5314  10.5367
    10.5808  10.5861  10.5869  10.5901  10.8691  10.8710  10.9897  11.0098
    11.0310  11.0331  11.0523  11.0523  11.2069  11.2273  11.2324  11.2417
    11.7174  11.7191  12.0651  12.0696  12.2628  12.2662  12.3063  12.3068
    12.3303  12.3352  12.4844  12.4844  13.4183  13.4190  13.8546  13.8572
    13.8629  13.8755  14.1492  14.1499  14.2449  14.2454  14.3673  14.3693
    15.7371  15.7376  15.7881  15.7996  16.1764  16.1786  16.2139  16.2199
    16.4535  16.4668  16.4708  16.6064  17.0498  17.0778  17.9771  17.9847
    18.5602  18.5622  18.6272  18.6305  19.0362  19.0431  19.0613  19.0651
    20.2421  20.2497  20.5715  20.5789  21.5487  21.5532  21.6994  21.7078
    21.8114  21.8166  22.0840  22.0841  22.7984  22.8010  22.9987  23.0007
    23.1795  23.2064  23.6912  23.6942  23.7053  23.7078  23.7118  23.7352
    24.5056  24.5109  24.7737  24.7876  24.9066  24.9090  25.5256  25.5277
    25.8770  25.8800  25.8866  25.9326  26.8833  26.8862  27.0141  27.0153
    27.0272  27.0426  27.2651  27.2729  27.3147  27.3250  28.6313  28.6338
    28.6744  28.6751  29.2441  29.2474  29.9062  29.9084  29.9100  29.9135
    29.9158  29.9166  30.0366  30.0395  30.1985  30.2004  30.3652  30.3653
    30.3756  30.3761  30.4657  30.4661  30.4715  30.4723  30.6742  30.6774
    30.9819  30.9827  31.0737  31.0755  31.1536  31.1563  31.2888  31.2899
    31.3161  31.3162  31.3162  31.3168  31.6024  31.6276  31.7587  31.7591
    32.0204  32.0233  32.5235  32.5262  32.5986  32.6006  32.8315  32.8454
    32.8599  32.8825  33.5521  33.5540  33.6277  33.6278  33.7169  33.7254
    33.7972  33.7992  33.9721  33.9863  34.3826  34.3826  34.3921  34.4594
    34.4646  34.4715  34.7679  34.7711  35.2664  35.2781  35.2894  35.2982
    35.4719  35.4722  35.4916  35.4933  35.6105  35.6113  35.8979  35.9514
    36.0533  36.0566  36.7861  36.8065  36.8431  36.8441  37.2316  37.2371
    37.4185  37.4190  37.5777  37.5803  37.9418  37.9427  38.2416  38.2456
    38.3322  38.3325  38.6622  38.6688  38.9144  38.9171  39.1635  39.1746
    39.3492  39.3494  39.6048  39.6121  39.8298  39.8591  40.1917  40.1989
    40.6204  40.6225  40.7537  40.7582  40.9034  40.9054  41.1103  41.1104
    41.3732  41.3781  41.5469  41.5504  41.5505  41.5519  41.8422  41.8426
    42.1579  42.1750  42.2067  42.2124  42.6152  42.6188  43.0515  43.0517
    43.4254  43.4527  44.2270  44.2399  44.6706  44.6825  44.6834  44.6869
    44.8012  44.8019  44.8626  44.8646  44.9813  44.9848  45.2802  45.2804
    46.0012  46.0022  46.2330  46.2347  46.3240  46.3242  46.3629  46.3667
    47.3716  47.3717  47.7015  47.7213  47.9138  48.0037  48.0112  48.0140
    48.1608  48.1630  48.4259  48.4508  48.5835  48.5884  48.6715  48.6717
    48.7608  48.7639  48.9587  48.9601  49.0081  49.0083

          k = 0.6667 0.0000 0.0000 (  6390 PWs)   bands (ev):

   -62.7094 -62.7094 -38.6355 -38.6124 -36.2042 -36.1565 -36.0851 -36.0700
   -13.9080 -13.8462 -13.8215 -13.8178  -7.3352  -7.3282  -6.5269  -6.4914
    -6.0207  -5.9633  -5.4921  -5.4742  -4.8372  -4.7872  -4.1335  -4.1102
    -2.0438  -1.8977  -0.2656  -0.2625   1.0530   1.0839   1.4960   1.6354
     2.8537   2.9355   5.2297   5.3507   5.6508   5.6541   7.6259   7.6340
     8.4477   8.4781   9.1683   9.1762   9.6537   9.6712   9.6902   9.7101
     9.7570   9.7587  10.0766  10.0906  10.4494  10.4523  10.5314  10.5367
    10.5808  10.5861  10.5869  10.5901  10.8691  10.8710  10.9897  11.0098
    11.0310  11.0331  11.0523  11.0523  11.2069  11.2273  11.2324  11.2417
    11.7174  11.7191  12.0651  12.0696  12.2628  12.2662  12.3063  12.3068
    12.3303  12.3352  12.4844  12.4844  13.4183  13.4190  13.8546  13.8572
    13.8629  13.8755  14.1492  14.1499  14.2449  14.2454  14.3673  14.3693
    15.7371  15.7376  15.7881  15.7996  16.1764  16.1786  16.2139  16.2199
    16.4535  16.4668  16.4708  16.6064  17.0498  17.0778  17.9771  17.9847
    18.5602  18.5622  18.6272  18.6305  19.0362  19.0431  19.0613  19.0651
    20.2421  20.2497  20.5715  20.5789  21.5487  21.5532  21.6994  21.7078
    21.8114  21.8166  22.0840  22.0841  22.7984  22.8010  22.9987  23.0007
    23.1795  23.2064  23.6912  23.6942  23.7053  23.7078  23.7118  23.7352
    24.5056  24.5109  24.7737  24.7876  24.9066  24.9090  25.5256  25.5277
    25.8770  25.8800  25.8866  25.9326  26.8833  26.8862  27.0141  27.0153
    27.0272  27.0426  27.2651  27.2729  27.3147  27.3250  28.6313  28.6338
    28.6744  28.6751  29.2441  29.2474  29.9062  29.9084  29.9100  29.9135
    29.9158  29.9166  30.0366  30.0395  30.1985  30.2004  30.3652  30.3653
    30.3756  30.3761  30.4657  30.4661  30.4715  30.4723  30.6742  30.6774
    30.9819  30.9827  31.0737  31.0755  31.1536  31.1563  31.2888  31.2899
    31.3161  31.3162  31.3162  31.3168  31.6024  31.6276  31.7587  31.7591
    32.0204  32.0233  32.5235  32.5262  32.5986  32.6006  32.8315  32.8454
    32.8599  32.8825  33.5521  33.5540  33.6277  33.6278  33.7169  33.7254
    33.7972  33.7992  33.9721  33.9863  34.3826  34.3826  34.3921  34.4594
    34.4646  34.4715  34.7679  34.7711  35.2664  35.2781  35.2894  35.2982
    35.4719  35.4722  35.4916  35.4933  35.6105  35.6113  35.8979  35.9514
    36.0533  36.0566  36.7861  36.8065  36.8431  36.8441  37.2316  37.2371
    37.4185  37.4190  37.5777  37.5803  37.9418  37.9427  38.2416  38.2456
    38.3322  38.3325  38.6622  38.6688  38.9144  38.9171  39.1635  39.1746
    39.3492  39.3494  39.6048  39.6121  39.8298  39.8591  40.1917  40.1989
    40.6204  40.6225  40.7537  40.7582  40.9034  40.9054  41.1103  41.1104
    41.3732  41.3781  41.5469  41.5504  41.5505  41.5519  41.8422  41.8426
    42.1579  42.1750  42.2067  42.2124  42.6152  42.6188  43.0515  43.0517
    43.4254  43.4527  44.2270  44.2399  44.6706  44.6825  44.6834  44.6869
    44.8012  44.8019  44.8626  44.8646  44.9813  44.9848  45.2802  45.2804
    46.0012  46.0022  46.2330  46.2347  46.3240  46.3242  46.3629  46.3667
    47.3716  47.3717  47.7015  47.7213  47.9138  48.0037  48.0112  48.0140
    48.1608  48.1630  48.4259  48.4508  48.5835  48.5884  48.6715  48.6717
    48.7608  48.7639  48.9587  48.9601  49.0081  49.0083

          k = 0.6667-0.0000 0.0000 (  6390 PWs)   bands (ev):

   -62.7094 -62.7094 -38.6355 -38.6124 -36.2042 -36.1565 -36.0851 -36.0700
   -13.9080 -13.8462 -13.8215 -13.8178  -7.3352  -7.3282  -6.5269  -6.4914
    -6.0207  -5.9633  -5.4921  -5.4742  -4.8372  -4.7872  -4.1335  -4.1102
    -2.0438  -1.8977  -0.2656  -0.2625   1.0530   1.0839   1.4960   1.6354
     2.8537   2.9355   5.2297   5.3507   5.6508   5.6541   7.6259   7.6340
     8.4477   8.4781   9.1683   9.1762   9.6537   9.6712   9.6902   9.7101
     9.7570   9.7587  10.0766  10.0906  10.4494  10.4523  10.5314  10.5367
    10.5808  10.5861  10.5869  10.5901  10.8691  10.8710  10.9897  11.0098
    11.0310  11.0331  11.0523  11.0523  11.2069  11.2273  11.2324  11.2417
    11.7174  11.7191  12.0651  12.0696  12.2628  12.2662  12.3063  12.3068
    12.3303  12.3352  12.4844  12.4844  13.4183  13.4190  13.8546  13.8572
    13.8629  13.8755  14.1492  14.1499  14.2449  14.2454  14.3673  14.3693
    15.7371  15.7376  15.7881  15.7996  16.1764  16.1786  16.2139  16.2199
    16.4535  16.4668  16.4708  16.6064  17.0498  17.0778  17.9771  17.9847
    18.5602  18.5622  18.6272  18.6305  19.0362  19.0431  19.0613  19.0651
    20.2421  20.2497  20.5715  20.5789  21.5487  21.5532  21.6994  21.7078
    21.8114  21.8166  22.0840  22.0841  22.7984  22.8010  22.9987  23.0007
    23.1795  23.2064  23.6912  23.6942  23.7053  23.7078  23.7118  23.7352
    24.5056  24.5109  24.7737  24.7876  24.9066  24.9090  25.5256  25.5277
    25.8770  25.8800  25.8866  25.9326  26.8833  26.8862  27.0141  27.0153
    27.0272  27.0426  27.2651  27.2729  27.3147  27.3250  28.6313  28.6338
    28.6744  28.6751  29.2441  29.2474  29.9062  29.9084  29.9100  29.9135
    29.9158  29.9166  30.0366  30.0395  30.1985  30.2004  30.3652  30.3653
    30.3756  30.3761  30.4657  30.4661  30.4715  30.4723  30.6742  30.6774
    30.9819  30.9827  31.0737  31.0755  31.1536  31.1563  31.2888  31.2899
    31.3161  31.3162  31.3162  31.3168  31.6024  31.6276  31.7587  31.7591
    32.0204  32.0233  32.5235  32.5262  32.5986  32.6006  32.8315  32.8454
    32.8599  32.8825  33.5521  33.5540  33.6277  33.6278  33.7169  33.7254
    33.7972  33.7992  33.9721  33.9863  34.3826  34.3826  34.3921  34.4594
    34.4646  34.4715  34.7679  34.7711  35.2664  35.2781  35.2894  35.2982
    35.4719  35.4722  35.4916  35.4933  35.6105  35.6113  35.8979  35.9514
    36.0533  36.0566  36.7861  36.8065  36.8431  36.8441  37.2316  37.2371
    37.4185  37.4190  37.5777  37.5803  37.9418  37.9427  38.2416  38.2456
    38.3322  38.3325  38.6622  38.6688  38.9144  38.9171  39.1635  39.1746
    39.3492  39.3494  39.6048  39.6121  39.8298  39.8591  40.1917  40.1989
    40.6204  40.6225  40.7537  40.7582  40.9034  40.9054  41.1103  41.1104
    41.3732  41.3781  41.5469  41.5504  41.5505  41.5519  41.8422  41.8426
    42.1579  42.1750  42.2067  42.2124  42.6152  42.6188  43.0515  43.0517
    43.4254  43.4527  44.2270  44.2399  44.6706  44.6825  44.6834  44.6869
    44.8012  44.8019  44.8626  44.8646  44.9813  44.9848  45.2802  45.2804
    46.0012  46.0022  46.2330  46.2347  46.3240  46.3242  46.3629  46.3667
    47.3716  47.3717  47.7015  47.7213  47.9138  48.0037  48.0112  48.0140
    48.1608  48.1630  48.4259  48.4508  48.5835  48.5884  48.6715  48.6717
    48.7608  48.7639  48.9587  48.9601  49.0081  49.0083

     highest occupied, lowest unoccupied level (ev):    -1.8977   -0.2656

     Writing all to output data dir ./2H.save/ :
     XML data file, pseudopotentials, collected wavefunctions

     init_run     :      0.28s CPU      0.33s WALL (       1 calls)
     electrons    :    829.59s CPU    837.66s WALL (       1 calls)

     Called by init_run:
     wfcinit      :      0.00s CPU      0.00s WALL (       1 calls)
     potinit      :      0.02s CPU      0.04s WALL (       1 calls)
     hinit0       :      0.21s CPU      0.22s WALL (       1 calls)

     Called by electrons:
     c_bands      :    829.59s CPU    837.65s WALL (       1 calls)
     v_of_rho     :      0.02s CPU      0.02s WALL (       1 calls)

     Called by c_bands:
     init_us_2    :      0.01s CPU      0.01s WALL (       5 calls)
     cegterg      :    816.07s CPU    823.12s WALL (      10 calls)

     Called by *egterg:
     cdiaghg      :    153.65s CPU    156.80s WALL (     200 calls)
     h_psi        :     62.69s CPU     65.85s WALL (     210 calls)
     g_psi        :      0.36s CPU      0.36s WALL (     195 calls)

     Called by h_psi:
     h_psi:calbec :     17.09s CPU     17.17s WALL (     210 calls)
     vloc_psi     :     28.85s CPU     31.59s WALL (     210 calls)
     add_vuspsi   :     15.95s CPU     15.96s WALL (     210 calls)

     General routines
     calbec       :     17.09s CPU     17.17s WALL (     210 calls)
     fft          :      0.17s CPU      0.19s WALL (      14 calls)
     fftw         :     24.20s CPU     26.47s WALL (  132948 calls)
     davcio       :      0.03s CPU      1.24s WALL (      10 calls)

     Parallel routines

     PWSCF        :  13m50.12s CPU  14m 1.88s WALL


   This run was terminated on:  13:51:26  25Feb2026            

=------------------------------------------------------------------------------=
   JOB DONE.
=------------------------------------------------------------------------------=
