TACC:  Starting up job 3014608 
TACC:  Starting parallel tasks... 

     Program PWSCF v.7.3 starts on 10Apr2026 at 14: 4:32 

     This program is part of the open-source Quantum ESPRESSO suite
     for quantum simulation of materials; please cite
         "P. Giannozzi et al., J. Phys.:Condens. Matter 21 395502 (2009);
         "P. Giannozzi et al., J. Phys.:Condens. Matter 29 465901 (2017);
         "P. Giannozzi et al., J. Chem. Phys. 152 154105 (2020);
          URL http://www.quantum-espresso.org", 
     in publications or presentations arising from this work. More details at
     http://www.quantum-espresso.org/quote

     Parallel version (MPI & OpenMP), running on       8 processor cores
     Number of MPI processes:                 8
     Threads/MPI process:                     1

     MPI processes distributed on     1 nodes
     184255 MiB available memory on the printing compute node when the environment starts
 
     Waiting for input...
     Reading input from standard input
Warning: card &IONS ignored
Warning: card  ION_DYNAMICS='BFGS', ignored
Warning: card / ignored
Warning: card &CELL ignored
Warning: card  CELL_DYNAMICS = 'BFGS' ignored
Warning: card  PRESS = 0.0, ignored
Warning: card  CELL_DOFREE = '2DXY' ignored
Warning: card / ignored

     Current dimensions of program PWSCF are:
     Max number of different atomic species (ntypx) = 10
     Max number of k-points (npk) =  40000
     Max angular momentum in pseudopotentials (lmaxx) =  4

     Atomic positions and unit cell read from directory:
     ./2H.save/
 
     Message from routine setup:
     using ibrav=0 with symmetry is DISCOURAGED, use correct ibrav instead
 
     R & G space division:  proc/nbgrp/npool/nimage =       8
     Subspace diagonalization in iterative solution of the eigenvalue problem:
     one sub-group per band group will be used
     ELPA distributed-memory algorithm (size of sub-group:  2*  2 procs)

 
     Parallelization info
     --------------------
     sticks:   dense  smooth     PW     G-vecs:    dense   smooth      PW
     Min          54      54     15                 6914     6914    1139
     Max          55      55     16                 6943     6943    1172
     Sum         433     433    127                55439    55439    9207
 
     Using Slab Decomposition
 


     bravais-lattice index     =            0
     lattice parameter (alat)  =       6.2739  a.u.
     unit-cell volume          =    1620.1960 (a.u.)^3
     number of atoms/cell      =            3
     number of atomic types    =            2
     number of electrons       =        46.00
     number of Kohn-Sham states=          350
     kinetic-energy cutoff     =      40.0000  Ry
     charge density cutoff     =     160.0000  Ry
     Exchange-correlation= PBE
                           (   1   4   3   4   0   0   0)
     Non magnetic calculation with spin-orbit


     celldm(1)=   6.273891  celldm(2)=   0.000000  celldm(3)=   0.000000
     celldm(4)=   0.000000  celldm(5)=   0.000000  celldm(6)=   0.000000

     crystal axes: (cart. coord. in units of alat)
               a(1) = (   1.000000   0.000000   0.000000 )  
               a(2) = (   0.500000   0.866025   0.000000 )  
               a(3) = (   0.000000   0.000000   7.575758 )  

     reciprocal axes: (cart. coord. in units 2 pi/alat)
               b(1) = (  1.000000 -0.577350  0.000000 )  
               b(2) = (  0.000000  1.154701  0.000000 )  
               b(3) = (  0.000000  0.000000  0.132000 )  


     PseudoPot. # 1 for W  read from file:
     ./pseudo/W.upf
     MD5 check sum: 75b1d432d85d028982bb81b068264ebf
     Pseudo is Norm-conserving + core correction, Zval = 14.0
     Generated using ONCVPSP code by D. R. Hamann
     Using radial grid of 1396 points, 14 beta functions with: 
                l(1) =   0
                l(2) =   0
                l(3) =   1
                l(4) =   1
                l(5) =   1
                l(6) =   1
                l(7) =   2
                l(8) =   2
                l(9) =   2
               l(10) =   2
               l(11) =   3
               l(12) =   3
               l(13) =   3
               l(14) =   3

     PseudoPot. # 2 for Se read from file:
     ./pseudo/Se.upf
     MD5 check sum: cb2cefba1335ec1a0ef320de5a6fd81a
     Pseudo is Norm-conserving + core correction, Zval = 16.0
     Generated using ONCVPSP code by D. R. Hamann
     Using radial grid of 1214 points, 10 beta functions with: 
                l(1) =   0
                l(2) =   0
                l(3) =   1
                l(4) =   1
                l(5) =   1
                l(6) =   1
                l(7) =   2
                l(8) =   2
                l(9) =   2
               l(10) =   2

     atomic species   valence    mass     pseudopotential
     W                14.00   183.84000     W ( 1.00)
     Se               16.00    78.96000     Se( 1.00)

     12 Sym. Ops. (no inversion) found



   Cartesian axes

     site n.     atom                  positions (alat units)
         1        W      tau(   1) = (   0.0000000   0.0000000   3.7878788  )
         2        Se     tau(   2) = (   1.0000000   0.5773503   4.2991098  )
         3        Se     tau(   3) = (   1.0000000   0.5773503   3.2766478  )

     number of k points=     5
                       cart. coord. in units 2pi/alat
        k(    1) = (   0.6666667   0.0000000   0.0000000), wk =   0.2000000
        k(    2) = (   0.6666767   0.0000000   0.0000000), wk =   0.2000000
        k(    3) = (   0.6666567   0.0000000   0.0000000), wk =   0.2000000
        k(    4) = (   0.6666667   0.0000100   0.0000000), wk =   0.2000000
        k(    5) = (   0.6666667  -0.0000100   0.0000000), wk =   0.2000000

     Dense  grid:    55439 G-vectors     FFT dimensions: (  25,  25, 192)

     Estimated max dynamical RAM per process >      73.67 MB

     Estimated total dynamical RAM >     589.33 MB

     The potential is recalculated from file :
     ./2H.save/charge-density

     Starting wfcs are   56 randomized atomic wfcs +  294 random wfcs

     Band Structure Calculation
     Davidson diagonalization with overlap

     ethr =  2.17E-11,  avg # of iterations = 36.2

     total cpu time spent up to now is       83.1 secs

     End of band structure calculation

          k = 0.6667 0.0000 0.0000 (  6852 PWs)   bands (ev):

   -74.7168 -74.7168 -49.4161 -49.4074 -49.2244 -49.2134 -49.0642 -49.0569
   -48.9991 -48.9877 -48.4958 -48.4936 -48.4324 -48.4255 -48.2517 -48.2466
   -48.2131 -48.2128 -48.0245 -48.0223 -47.9726 -47.9701 -46.1433 -46.1304
   -36.4089 -36.3735 -36.3337 -36.3215 -13.7565 -13.6280 -13.5997 -13.5915
    -5.9938  -5.9251  -5.9202  -5.7406  -5.0572  -4.9351  -4.5236  -4.4412
    -4.1103  -3.8486  -3.2250  -3.1458  -1.0015  -0.5298   0.7883   0.8223
     2.1068   2.1922   2.4947   2.8555   3.7339   3.9731   5.3489   5.4068
     5.8635   6.2534   8.2902   8.3777   8.8661   9.0463   9.3548   9.3675
     9.7270   9.7316   9.7988   9.8557   9.8566   9.8609  10.2199  10.2505
    10.3571  10.3587  10.3780  10.3994  10.4855  10.4911  10.6745  10.6796
    10.8921  10.9397  10.9410  10.9931  11.3565  11.3763  11.3842  11.4241
    11.5394  11.6333  11.7021  11.7087  12.0726  12.0909  12.2027  12.3276
    12.5515  12.5892  12.5903  12.6641  12.8124  12.8565  12.8631  12.9441
    13.5730  13.5756  14.0675  14.0703  14.2272  14.2797  14.3007  14.3266
    14.4943  14.5042  14.9164  14.9166  15.9052  15.9213  16.0042  16.0131
    16.2857  16.4094  16.5505  16.5826  16.6127  16.6324  16.9262  16.9660
    17.3952  17.4056  18.4565  18.4829  18.5943  18.6039  18.7896  18.7995
    19.1457  19.1645  19.5004  19.5162  20.2467  20.2797  21.1911  21.2081
    21.5675  21.5727  21.6933  21.7086  21.9545  21.9723  22.5668  22.5738
    23.2649  23.2728  23.2995  23.4962  23.9337  24.0459  24.0973  24.0980
    24.5943  24.6284  24.9309  24.9361  25.2993  25.3007  25.6008  25.6562
    25.7515  25.8124  26.0315  26.0628  26.5809  26.6300  26.7242  26.7422
    27.1420  27.1510  27.3512  27.3752  27.9280  27.9700  28.0109  28.0346
    28.1776  28.1798  28.2548  28.3551  28.3876  28.3911  28.4872  28.4888
    28.5320  28.5389  28.5714  28.5871  28.5914  28.5924  28.6361  28.6388
    28.9773  28.9869  29.2679  29.2767  29.3016  29.3464  29.4817  29.4868
    29.5167  29.5189  29.5681  29.6210  29.6244  29.6267  29.6353  29.6364
    29.6790  29.6825  29.9896  30.0074  30.6159  30.6366  30.7644  30.7923
    30.8347  30.8358  30.9188  30.9199  31.0914  31.0921  31.2052  31.2162
    31.3280  31.3808  31.5524  31.5750  32.1978  32.2148  32.3509  32.4197
    32.4376  32.4467  32.7550  32.8425  33.2063  33.2138  33.2597  33.2684
    33.3317  33.3331  33.5075  33.5758  33.6685  33.6743  33.8060  33.8079
    33.8362  33.8417  33.8774  33.8783  34.2499  34.2524  34.8052  34.8086
    34.8700  34.8998  35.1592  35.1645  35.3487  35.3491  35.6766  35.6863
    35.8865  35.8900  35.9291  35.9496  36.1489  36.1518  36.5458  36.6244
    36.9151  36.9173  37.1562  37.1808  37.3260  37.3413  37.3991  37.4186
    37.4261  37.4279  37.9470  37.9610  38.1968  38.2057  38.4970  38.5213
    39.1979  39.2022  39.2692  39.2768  39.4440  39.4647  39.5441  39.5463
    39.8877  39.8921  39.8928  39.8990  40.0655  40.0792  40.1179  40.1262
    40.7489  40.7551  41.0591  41.0673  41.0691  41.0697  41.1461  41.1511
    41.2004  41.3553  41.3913  41.4699  42.1639  42.1721  42.4784  42.6157
    43.1519  43.1694  43.4559  43.4636  43.4801  43.5113  43.5724  43.6784
    43.9529  43.9548  44.2984  44.3114  44.5392  44.7179  44.7201  44.7280
    44.8202  44.8423  44.8670  44.8708  44.8908  44.9140

          k = 0.6667 0.0000 0.0000 (  6852 PWs)   bands (ev):

   -74.7168 -74.7168 -49.4161 -49.4074 -49.2244 -49.2134 -49.0642 -49.0569
   -48.9991 -48.9877 -48.4958 -48.4936 -48.4324 -48.4255 -48.2517 -48.2466
   -48.2131 -48.2128 -48.0245 -48.0223 -47.9726 -47.9701 -46.1433 -46.1304
   -36.4089 -36.3735 -36.3337 -36.3215 -13.7565 -13.6280 -13.5997 -13.5915
    -5.9938  -5.9251  -5.9202  -5.7406  -5.0572  -4.9351  -4.5236  -4.4412
    -4.1103  -3.8486  -3.2250  -3.1458  -1.0015  -0.5298   0.7883   0.8223
     2.1068   2.1922   2.4947   2.8555   3.7339   3.9731   5.3489   5.4068
     5.8635   6.2534   8.2902   8.3777   8.8661   9.0463   9.3548   9.3675
     9.7270   9.7316   9.7988   9.8557   9.8566   9.8609  10.2199  10.2505
    10.3571  10.3587  10.3780  10.3994  10.4855  10.4911  10.6745  10.6796
    10.8921  10.9397  10.9410  10.9931  11.3565  11.3763  11.3842  11.4241
    11.5394  11.6333  11.7021  11.7087  12.0726  12.0909  12.2027  12.3276
    12.5515  12.5892  12.5903  12.6641  12.8124  12.8565  12.8631  12.9441
    13.5730  13.5756  14.0675  14.0703  14.2272  14.2797  14.3007  14.3266
    14.4943  14.5042  14.9164  14.9166  15.9052  15.9213  16.0042  16.0131
    16.2857  16.4094  16.5505  16.5826  16.6127  16.6324  16.9262  16.9660
    17.3952  17.4056  18.4565  18.4829  18.5943  18.6039  18.7896  18.7995
    19.1457  19.1645  19.5004  19.5162  20.2467  20.2797  21.1911  21.2081
    21.5675  21.5727  21.6933  21.7086  21.9545  21.9723  22.5668  22.5738
    23.2649  23.2728  23.2995  23.4962  23.9337  24.0459  24.0973  24.0980
    24.5943  24.6284  24.9309  24.9361  25.2993  25.3007  25.6008  25.6562
    25.7515  25.8124  26.0315  26.0628  26.5809  26.6300  26.7242  26.7422
    27.1420  27.1510  27.3512  27.3752  27.9280  27.9700  28.0109  28.0346
    28.1776  28.1798  28.2548  28.3551  28.3876  28.3911  28.4872  28.4888
    28.5320  28.5389  28.5714  28.5871  28.5914  28.5924  28.6361  28.6388
    28.9773  28.9869  29.2679  29.2767  29.3016  29.3464  29.4817  29.4868
    29.5167  29.5189  29.5681  29.6210  29.6244  29.6267  29.6353  29.6364
    29.6790  29.6825  29.9896  30.0074  30.6159  30.6366  30.7644  30.7923
    30.8347  30.8358  30.9188  30.9199  31.0914  31.0921  31.2052  31.2162
    31.3280  31.3808  31.5524  31.5750  32.1978  32.2148  32.3509  32.4197
    32.4376  32.4467  32.7550  32.8425  33.2063  33.2138  33.2597  33.2684
    33.3317  33.3331  33.5075  33.5758  33.6685  33.6743  33.8060  33.8079
    33.8362  33.8417  33.8774  33.8783  34.2499  34.2524  34.8052  34.8086
    34.8700  34.8998  35.1592  35.1645  35.3487  35.3491  35.6766  35.6863
    35.8865  35.8900  35.9291  35.9496  36.1489  36.1518  36.5458  36.6244
    36.9151  36.9173  37.1562  37.1808  37.3260  37.3413  37.3991  37.4186
    37.4261  37.4279  37.9470  37.9610  38.1968  38.2057  38.4970  38.5213
    39.1979  39.2022  39.2692  39.2768  39.4440  39.4647  39.5441  39.5463
    39.8877  39.8921  39.8928  39.8990  40.0655  40.0792  40.1179  40.1262
    40.7489  40.7551  41.0591  41.0673  41.0691  41.0697  41.1461  41.1511
    41.2004  41.3553  41.3913  41.4699  42.1639  42.1721  42.4784  42.6157
    43.1519  43.1694  43.4559  43.4636  43.4801  43.5113  43.5724  43.6784
    43.9529  43.9548  44.2984  44.3114  44.5392  44.7179  44.7201  44.7280
    44.8202  44.8423  44.8670  44.8708  44.8908  44.9140

          k = 0.6667 0.0000 0.0000 (  6852 PWs)   bands (ev):

   -74.7168 -74.7168 -49.4161 -49.4074 -49.2244 -49.2134 -49.0642 -49.0569
   -48.9991 -48.9877 -48.4958 -48.4936 -48.4324 -48.4255 -48.2517 -48.2466
   -48.2131 -48.2128 -48.0245 -48.0223 -47.9726 -47.9701 -46.1433 -46.1304
   -36.4089 -36.3735 -36.3337 -36.3215 -13.7565 -13.6280 -13.5997 -13.5915
    -5.9938  -5.9251  -5.9202  -5.7406  -5.0572  -4.9351  -4.5236  -4.4412
    -4.1103  -3.8486  -3.2250  -3.1458  -1.0015  -0.5298   0.7883   0.8223
     2.1068   2.1922   2.4947   2.8555   3.7339   3.9731   5.3489   5.4068
     5.8635   6.2534   8.2902   8.3777   8.8661   9.0463   9.3548   9.3675
     9.7270   9.7316   9.7988   9.8557   9.8566   9.8609  10.2199  10.2505
    10.3571  10.3587  10.3780  10.3994  10.4855  10.4911  10.6745  10.6796
    10.8921  10.9397  10.9410  10.9931  11.3565  11.3763  11.3842  11.4241
    11.5394  11.6333  11.7021  11.7087  12.0726  12.0909  12.2027  12.3276
    12.5515  12.5892  12.5903  12.6641  12.8124  12.8565  12.8631  12.9441
    13.5730  13.5756  14.0675  14.0703  14.2272  14.2797  14.3007  14.3266
    14.4943  14.5042  14.9164  14.9166  15.9052  15.9213  16.0042  16.0131
    16.2857  16.4094  16.5505  16.5826  16.6127  16.6324  16.9262  16.9660
    17.3952  17.4056  18.4565  18.4829  18.5943  18.6039  18.7896  18.7995
    19.1457  19.1645  19.5004  19.5162  20.2467  20.2797  21.1911  21.2081
    21.5675  21.5727  21.6933  21.7086  21.9545  21.9723  22.5668  22.5738
    23.2649  23.2728  23.2995  23.4962  23.9337  24.0459  24.0973  24.0980
    24.5943  24.6284  24.9309  24.9361  25.2993  25.3007  25.6008  25.6562
    25.7515  25.8124  26.0315  26.0628  26.5809  26.6300  26.7242  26.7422
    27.1420  27.1510  27.3512  27.3752  27.9280  27.9700  28.0109  28.0346
    28.1776  28.1798  28.2548  28.3551  28.3876  28.3911  28.4872  28.4888
    28.5320  28.5389  28.5714  28.5871  28.5914  28.5924  28.6361  28.6388
    28.9773  28.9869  29.2679  29.2767  29.3016  29.3464  29.4817  29.4868
    29.5167  29.5189  29.5681  29.6210  29.6244  29.6267  29.6353  29.6364
    29.6790  29.6825  29.9896  30.0074  30.6159  30.6366  30.7644  30.7923
    30.8347  30.8358  30.9188  30.9199  31.0914  31.0921  31.2052  31.2162
    31.3280  31.3808  31.5524  31.5750  32.1978  32.2148  32.3509  32.4197
    32.4376  32.4467  32.7550  32.8425  33.2063  33.2138  33.2597  33.2684
    33.3317  33.3331  33.5075  33.5758  33.6685  33.6743  33.8060  33.8079
    33.8362  33.8417  33.8774  33.8783  34.2499  34.2524  34.8052  34.8086
    34.8700  34.8998  35.1592  35.1645  35.3487  35.3491  35.6766  35.6863
    35.8865  35.8900  35.9291  35.9496  36.1489  36.1518  36.5458  36.6244
    36.9151  36.9173  37.1562  37.1808  37.3260  37.3413  37.3991  37.4186
    37.4261  37.4279  37.9470  37.9610  38.1968  38.2057  38.4970  38.5213
    39.1979  39.2022  39.2692  39.2768  39.4440  39.4647  39.5441  39.5463
    39.8877  39.8921  39.8928  39.8990  40.0655  40.0792  40.1179  40.1262
    40.7489  40.7551  41.0591  41.0673  41.0691  41.0697  41.1461  41.1511
    41.2004  41.3553  41.3913  41.4699  42.1639  42.1721  42.4784  42.6157
    43.1519  43.1694  43.4559  43.4636  43.4801  43.5113  43.5724  43.6784
    43.9529  43.9548  44.2984  44.3114  44.5392  44.7179  44.7201  44.7280
    44.8202  44.8423  44.8670  44.8708  44.8908  44.9140

          k = 0.6667 0.0000 0.0000 (  6852 PWs)   bands (ev):

   -74.7168 -74.7168 -49.4161 -49.4074 -49.2244 -49.2134 -49.0642 -49.0569
   -48.9991 -48.9877 -48.4958 -48.4936 -48.4324 -48.4255 -48.2517 -48.2466
   -48.2131 -48.2128 -48.0245 -48.0223 -47.9726 -47.9701 -46.1433 -46.1304
   -36.4089 -36.3735 -36.3337 -36.3215 -13.7565 -13.6280 -13.5997 -13.5915
    -5.9938  -5.9251  -5.9202  -5.7406  -5.0572  -4.9351  -4.5236  -4.4412
    -4.1103  -3.8486  -3.2250  -3.1458  -1.0015  -0.5298   0.7883   0.8223
     2.1068   2.1922   2.4947   2.8555   3.7339   3.9731   5.3489   5.4068
     5.8635   6.2534   8.2902   8.3777   8.8661   9.0463   9.3548   9.3675
     9.7270   9.7316   9.7988   9.8557   9.8566   9.8609  10.2199  10.2505
    10.3571  10.3587  10.3780  10.3994  10.4855  10.4911  10.6745  10.6796
    10.8921  10.9397  10.9410  10.9931  11.3565  11.3763  11.3842  11.4241
    11.5394  11.6333  11.7021  11.7087  12.0726  12.0909  12.2027  12.3276
    12.5515  12.5892  12.5903  12.6641  12.8124  12.8565  12.8631  12.9441
    13.5730  13.5756  14.0675  14.0703  14.2272  14.2797  14.3007  14.3266
    14.4943  14.5042  14.9164  14.9166  15.9052  15.9213  16.0042  16.0131
    16.2857  16.4094  16.5505  16.5826  16.6127  16.6324  16.9262  16.9660
    17.3952  17.4056  18.4565  18.4829  18.5943  18.6039  18.7896  18.7995
    19.1457  19.1645  19.5004  19.5162  20.2467  20.2797  21.1911  21.2081
    21.5675  21.5727  21.6933  21.7086  21.9545  21.9723  22.5668  22.5738
    23.2649  23.2728  23.2995  23.4962  23.9337  24.0459  24.0973  24.0980
    24.5943  24.6284  24.9309  24.9361  25.2993  25.3007  25.6008  25.6562
    25.7515  25.8124  26.0315  26.0628  26.5809  26.6300  26.7242  26.7422
    27.1420  27.1510  27.3512  27.3752  27.9280  27.9700  28.0109  28.0346
    28.1776  28.1798  28.2548  28.3551  28.3876  28.3911  28.4872  28.4888
    28.5320  28.5389  28.5714  28.5871  28.5914  28.5924  28.6361  28.6388
    28.9773  28.9869  29.2679  29.2767  29.3016  29.3464  29.4817  29.4868
    29.5167  29.5189  29.5681  29.6210  29.6244  29.6267  29.6353  29.6364
    29.6790  29.6825  29.9896  30.0074  30.6159  30.6366  30.7644  30.7923
    30.8347  30.8358  30.9188  30.9199  31.0914  31.0921  31.2052  31.2162
    31.3280  31.3808  31.5524  31.5750  32.1978  32.2148  32.3509  32.4197
    32.4376  32.4467  32.7550  32.8425  33.2063  33.2138  33.2597  33.2684
    33.3317  33.3331  33.5075  33.5758  33.6685  33.6743  33.8060  33.8079
    33.8362  33.8417  33.8774  33.8783  34.2499  34.2524  34.8052  34.8086
    34.8700  34.8998  35.1592  35.1645  35.3487  35.3491  35.6766  35.6863
    35.8865  35.8900  35.9291  35.9496  36.1489  36.1518  36.5458  36.6244
    36.9151  36.9173  37.1562  37.1808  37.3260  37.3413  37.3991  37.4186
    37.4261  37.4279  37.9470  37.9610  38.1968  38.2057  38.4970  38.5213
    39.1979  39.2022  39.2692  39.2768  39.4440  39.4647  39.5441  39.5463
    39.8877  39.8921  39.8928  39.8990  40.0655  40.0792  40.1179  40.1262
    40.7489  40.7551  41.0591  41.0673  41.0691  41.0697  41.1461  41.1511
    41.2004  41.3553  41.3913  41.4699  42.1639  42.1721  42.4784  42.6157
    43.1519  43.1694  43.4559  43.4636  43.4801  43.5113  43.5724  43.6784
    43.9529  43.9548  44.2984  44.3114  44.5392  44.7179  44.7201  44.7280
    44.8202  44.8423  44.8670  44.8708  44.8908  44.9140

          k = 0.6667-0.0000 0.0000 (  6852 PWs)   bands (ev):

   -74.7168 -74.7168 -49.4161 -49.4074 -49.2244 -49.2134 -49.0642 -49.0569
   -48.9991 -48.9877 -48.4958 -48.4936 -48.4324 -48.4255 -48.2517 -48.2466
   -48.2131 -48.2128 -48.0245 -48.0223 -47.9726 -47.9701 -46.1433 -46.1304
   -36.4089 -36.3735 -36.3337 -36.3215 -13.7565 -13.6280 -13.5997 -13.5915
    -5.9938  -5.9251  -5.9202  -5.7406  -5.0572  -4.9351  -4.5236  -4.4412
    -4.1103  -3.8486  -3.2250  -3.1458  -1.0015  -0.5298   0.7883   0.8223
     2.1068   2.1922   2.4947   2.8555   3.7339   3.9731   5.3489   5.4068
     5.8635   6.2534   8.2902   8.3777   8.8661   9.0463   9.3548   9.3675
     9.7270   9.7316   9.7988   9.8557   9.8566   9.8609  10.2199  10.2505
    10.3571  10.3587  10.3780  10.3994  10.4855  10.4911  10.6745  10.6796
    10.8921  10.9397  10.9410  10.9931  11.3565  11.3763  11.3842  11.4241
    11.5394  11.6333  11.7021  11.7087  12.0726  12.0909  12.2027  12.3276
    12.5515  12.5892  12.5903  12.6641  12.8124  12.8565  12.8631  12.9441
    13.5730  13.5756  14.0675  14.0703  14.2272  14.2797  14.3007  14.3266
    14.4943  14.5042  14.9164  14.9166  15.9052  15.9213  16.0042  16.0131
    16.2857  16.4094  16.5505  16.5826  16.6127  16.6324  16.9262  16.9660
    17.3952  17.4056  18.4565  18.4829  18.5943  18.6039  18.7896  18.7995
    19.1457  19.1645  19.5004  19.5162  20.2467  20.2797  21.1911  21.2081
    21.5675  21.5727  21.6933  21.7086  21.9545  21.9723  22.5668  22.5738
    23.2649  23.2728  23.2995  23.4962  23.9337  24.0459  24.0973  24.0980
    24.5943  24.6284  24.9309  24.9361  25.2993  25.3007  25.6008  25.6562
    25.7515  25.8124  26.0315  26.0628  26.5809  26.6300  26.7242  26.7422
    27.1420  27.1510  27.3512  27.3752  27.9280  27.9700  28.0109  28.0346
    28.1776  28.1798  28.2548  28.3551  28.3876  28.3911  28.4872  28.4888
    28.5320  28.5389  28.5714  28.5871  28.5914  28.5924  28.6361  28.6388
    28.9773  28.9869  29.2679  29.2767  29.3016  29.3464  29.4817  29.4868
    29.5167  29.5189  29.5681  29.6210  29.6244  29.6267  29.6353  29.6364
    29.6790  29.6825  29.9896  30.0074  30.6159  30.6366  30.7644  30.7923
    30.8347  30.8358  30.9188  30.9199  31.0914  31.0921  31.2052  31.2162
    31.3280  31.3808  31.5524  31.5750  32.1978  32.2148  32.3509  32.4197
    32.4376  32.4467  32.7550  32.8425  33.2063  33.2138  33.2597  33.2684
    33.3317  33.3331  33.5075  33.5758  33.6685  33.6743  33.8060  33.8079
    33.8362  33.8417  33.8774  33.8783  34.2499  34.2524  34.8052  34.8086
    34.8700  34.8998  35.1592  35.1645  35.3487  35.3491  35.6766  35.6863
    35.8865  35.8900  35.9291  35.9496  36.1489  36.1518  36.5458  36.6244
    36.9151  36.9173  37.1562  37.1808  37.3260  37.3413  37.3991  37.4186
    37.4261  37.4279  37.9470  37.9610  38.1968  38.2057  38.4970  38.5213
    39.1979  39.2022  39.2692  39.2768  39.4440  39.4647  39.5441  39.5463
    39.8877  39.8921  39.8928  39.8990  40.0655  40.0792  40.1179  40.1262
    40.7489  40.7551  41.0591  41.0673  41.0691  41.0697  41.1461  41.1511
    41.2004  41.3553  41.3913  41.4699  42.1639  42.1721  42.4784  42.6157
    43.1519  43.1694  43.4559  43.4636  43.4801  43.5113  43.5724  43.6784
    43.9529  43.9548  44.2984  44.3114  44.5392  44.7179  44.7201  44.7280
    44.8202  44.8423  44.8670  44.8708  44.8908  44.9140

     highest occupied, lowest unoccupied level (ev):    -0.5298    0.7883

     Writing all to output data dir ./2H.save/ :
     XML data file, pseudopotentials, collected wavefunctions
 
     init_run     :      0.11s CPU      0.14s WALL (       1 calls)
     electrons    :     81.01s CPU     82.78s WALL (       1 calls)

     Called by init_run:
     wfcinit      :      0.00s CPU      0.01s WALL (       1 calls)
     potinit      :      0.01s CPU      0.03s WALL (       1 calls)
     hinit0       :      0.06s CPU      0.07s WALL (       1 calls)

     Called by electrons:
     c_bands      :     81.01s CPU     82.78s WALL (       1 calls)
     v_of_rho     :      0.01s CPU      0.01s WALL (       1 calls)

     Called by c_bands:
     init_us_2    :      0.00s CPU      0.00s WALL (       5 calls)
     init_us_2:cp :      0.00s CPU      0.00s WALL (       5 calls)
     cegterg      :     79.04s CPU     80.71s WALL (      10 calls)

     Called by *egterg:
     cdiaghg      :     28.10s CPU     28.93s WALL (     186 calls)
     h_psi        :     22.75s CPU     23.14s WALL (     196 calls)
     g_psi        :      0.16s CPU      0.17s WALL (     181 calls)

     Called by h_psi:
     h_psi:calbec :      1.33s CPU      1.33s WALL (     196 calls)
     vloc_psi     :     19.40s CPU     19.74s WALL (     196 calls)
     add_vuspsi   :      1.87s CPU      1.88s WALL (     196 calls)

     General routines
     calbec       :      1.33s CPU      1.33s WALL (     196 calls)
     fft          :      0.01s CPU      0.01s WALL (      14 calls)
     fftw         :     16.36s CPU     16.65s WALL (  138952 calls)
     davcio       :      0.00s CPU      0.04s WALL (      10 calls)
 
     Parallel routines
 
     PWSCF        :   1m21.58s CPU   1m24.20s WALL

 
   This run was terminated on:  14: 5:57  10Apr2026            

=------------------------------------------------------------------------------=
   JOB DONE.
=------------------------------------------------------------------------------=
TACC:  Shutdown complete. Exiting. 
